(set-option :produce-models true); benchmark generated from python API
(set-info :status unknown)
(declare-fun l_0_0_25 () Real)
(declare-fun _a_0_ () Real)
(declare-fun l_0_0_7 () Real)
(declare-fun l_0_0_28 () Real)
(declare-fun l_0_0_1 () Real)
(declare-fun _a_1_ () Real)
(declare-fun l_0_0_26 () Real)
(declare-fun l_0_0_19 () Real)
(declare-fun l_0_0_13 () Real)
(declare-fun _a_2_ () Real)
(declare-fun l_0_0_30 () Real)
(declare-fun l_0_0_29 () Real)
(declare-fun l_0_0_10 () Real)
(declare-fun l_0_0_4 () Real)
(declare-fun _a_3_ () Real)
(declare-fun l_0_0_8 () Real)
(declare-fun l_0_0_27 () Real)
(declare-fun l_0_0_22 () Real)
(declare-fun l_0_0_16 () Real)
(declare-fun l_0_0_2 () Real)
(declare-fun l_0_0_9 () Real)
(declare-fun l_0_0_3 () Real)
(declare-fun l_0_0_23 () Real)
(declare-fun l_0_0_21 () Real)
(declare-fun l_0_0_20 () Real)
(declare-fun l_0_0_17 () Real)
(declare-fun l_0_0_15 () Real)
(declare-fun l_0_0_14 () Real)
(declare-fun l_0_0_5 () Real)
(declare-fun l_0_0_24 () Real)
(declare-fun l_0_0_18 () Real)
(declare-fun l_0_0_11 () Real)
(declare-fun l_0_0_6 () Real)
(declare-fun l_0_0_12 () Real)
(declare-fun l_0_1_7 () Real)
(declare-fun l_0_1_25 () Real)
(declare-fun l_0_1_1 () Real)
(declare-fun l_0_1_30 () Real)
(declare-fun l_0_1_29 () Real)
(declare-fun l_0_1_28 () Real)
(declare-fun l_0_1_13 () Real)
(declare-fun l_0_1_16 () Real)
(declare-fun l_0_1_12 () Real)
(declare-fun l_0_1_11 () Real)
(declare-fun l_0_1_10 () Real)
(declare-fun l_0_1_4 () Real)
(declare-fun l_0_1_6 () Real)
(declare-fun l_0_1_5 () Real)
(declare-fun l_0_1_8 () Real)
(declare-fun l_0_1_26 () Real)
(declare-fun l_0_1_19 () Real)
(declare-fun l_0_1_2 () Real)
(declare-fun l_0_1_9 () Real)
(declare-fun l_0_1_27 () Real)
(declare-fun l_0_1_20 () Real)
(declare-fun l_0_1_3 () Real)
(declare-fun l_0_1_22 () Real)
(declare-fun l_0_1_14 () Real)
(declare-fun l_0_1_23 () Real)
(declare-fun l_0_1_21 () Real)
(declare-fun l_0_1_15 () Real)
(declare-fun l_0_1_24 () Real)
(declare-fun l_0_1_17 () Real)
(declare-fun l_0_1_18 () Real)
(declare-fun l_0_2_7 () Real)
(declare-fun l_0_2_31 () Real)
(declare-fun l_0_2_25 () Real)
(declare-fun l_0_2_1 () Real)
(declare-fun l_0_2_8 () Real)
(declare-fun l_0_2_32 () Real)
(declare-fun l_0_2_26 () Real)
(declare-fun l_0_2_19 () Real)
(declare-fun l_0_2_2 () Real)
(declare-fun l_0_2_36 () Real)
(declare-fun l_0_2_35 () Real)
(declare-fun l_0_2_34 () Real)
(declare-fun l_0_2_30 () Real)
(declare-fun l_0_2_29 () Real)
(declare-fun l_0_2_28 () Real)
(declare-fun l_0_2_13 () Real)
(declare-fun l_0_2_16 () Real)
(declare-fun l_0_2_12 () Real)
(declare-fun l_0_2_11 () Real)
(declare-fun l_0_2_10 () Real)
(declare-fun l_0_2_4 () Real)
(declare-fun l_0_2_6 () Real)
(declare-fun l_0_2_5 () Real)
(declare-fun l_0_2_9 () Real)
(declare-fun l_0_2_33 () Real)
(declare-fun l_0_2_27 () Real)
(declare-fun l_0_2_20 () Real)
(declare-fun l_0_2_3 () Real)
(declare-fun l_0_2_22 () Real)
(declare-fun l_0_2_14 () Real)
(declare-fun l_0_2_23 () Real)
(declare-fun l_0_2_21 () Real)
(declare-fun l_0_2_15 () Real)
(declare-fun l_0_2_24 () Real)
(declare-fun l_0_2_17 () Real)
(declare-fun l_0_2_18 () Real)
(declare-fun l_0_3_7 () Real)
(declare-fun l_0_3_25 () Real)
(declare-fun l_0_3_1 () Real)
(declare-fun l_0_3_28 () Real)
(declare-fun l_0_3_13 () Real)
(declare-fun l_0_3_10 () Real)
(declare-fun l_0_3_4 () Real)
(declare-fun l_0_3_8 () Real)
(declare-fun l_0_3_26 () Real)
(declare-fun l_0_3_19 () Real)
(declare-fun l_0_3_2 () Real)
(declare-fun l_0_3_30 () Real)
(declare-fun l_0_3_29 () Real)
(declare-fun l_0_3_16 () Real)
(declare-fun l_0_3_12 () Real)
(declare-fun l_0_3_11 () Real)
(declare-fun l_0_3_6 () Real)
(declare-fun l_0_3_5 () Real)
(declare-fun l_0_3_9 () Real)
(declare-fun l_0_3_27 () Real)
(declare-fun l_0_3_20 () Real)
(declare-fun l_0_3_3 () Real)
(declare-fun l_0_3_22 () Real)
(declare-fun l_0_3_14 () Real)
(declare-fun l_0_3_23 () Real)
(declare-fun l_0_3_21 () Real)
(declare-fun l_0_3_15 () Real)
(declare-fun l_0_3_24 () Real)
(declare-fun l_0_3_17 () Real)
(declare-fun l_0_3_18 () Real)
(assert
 (= (- _a_0_ (* l_0_0_25 l_0_0_25)) 0.0))
(assert
 (let ((?x167 (* l_0_0_7 l_0_0_7)))
 (let ((?x161 (* l_0_0_1 l_0_0_1)))
 (let ((?x162 (+ _a_1_ ?x161)))
 (= (- (- ?x162 (* (* 2.0 l_0_0_25) l_0_0_28)) ?x167) 0.0)))))
(assert
 (let ((?x186 (- (- (+ _a_2_ (* l_0_0_13 l_0_0_13)) (* l_0_0_19 l_0_0_19)) (* (* 2.0 l_0_0_25) l_0_0_26))))
 (= ?x186 0.0)))
(assert
 (let ((?x208 (* l_0_0_30 l_0_0_30)))
 (let ((?x206 (* l_0_0_29 l_0_0_29)))
 (let ((?x204 (* l_0_0_28 l_0_0_28)))
 (let ((?x203 (- (+ _a_3_ (* (* 2.0 l_0_0_1) l_0_0_4)) (* (* 2.0 l_0_0_10) l_0_0_7))))
 (= (- (- (- ?x203 ?x204) ?x206) ?x208) 0.0))))))
(assert
 (let ((?x233 (+ (* (* 2.0 l_0_0_1) l_0_0_2) (* (* 2.0 l_0_0_13) l_0_0_16))))
 (let ((?x239 (- (- ?x233 (* (* 2.0 l_0_0_19) l_0_0_22)) (* (* 2.0 l_0_0_26) l_0_0_28))))
 (let ((?x245 (- (- ?x239 (* (* 2.0 l_0_0_27) l_0_0_29)) (* (* 2.0 l_0_0_7) l_0_0_8))))
 (= ?x245 0.0)))))
(assert
 (let ((?x294 (* l_0_0_9 l_0_0_9)))
 (let ((?x292 (* l_0_0_8 l_0_0_8)))
 (let ((?x290 (* l_0_0_3 l_0_0_3)))
 (let ((?x282 (* l_0_0_2 l_0_0_2)))
 (let ((?x281 (+ (* (* 2.0 l_0_0_14) l_0_0_16) (* (* 2.0 l_0_0_15) l_0_0_17))))
 (let ((?x289 (- (- (+ ?x281 ?x282) (* (* 2.0 l_0_0_20) l_0_0_22)) (* (* 2.0 l_0_0_21) l_0_0_23))))
 (= (- (- (+ ?x289 ?x290) ?x292) ?x294) 0.0))))))))
(assert
 (let ((?x340 (* l_0_0_24 l_0_0_24)))
 (let ((?x338 (* l_0_0_23 l_0_0_23)))
 (let ((?x336 (* l_0_0_22 l_0_0_22)))
 (let ((?x331 (* l_0_0_18 l_0_0_18)))
 (let ((?x329 (* l_0_0_17 l_0_0_17)))
 (let ((?x327 (* l_0_0_16 l_0_0_16)))
 (let ((?x326 (- (* (* (- 2.0) l_0_0_10) l_0_0_8) (* (* 2.0 l_0_0_11) l_0_0_9))))
 (let ((?x335 (+ (+ (+ (+ ?x326 ?x327) ?x329) ?x331) (* (* 2.0 l_0_0_2) l_0_0_4))))
 (let ((?x344 (+ (- (- (- ?x335 ?x336) ?x338) ?x340) (* (* 2.0 l_0_0_3) l_0_0_5))))
 (= ?x344 0.0)))))))))))
(assert
 (let ((?x380 (* l_0_0_6 l_0_0_6)))
 (let ((?x378 (* l_0_0_5 l_0_0_5)))
 (let ((?x376 (* l_0_0_4 l_0_0_4)))
 (let ((?x374 (* l_0_0_12 l_0_0_12)))
 (let ((?x377 (+ (- (- (* (- l_0_0_10) l_0_0_10) (* l_0_0_11 l_0_0_11)) ?x374) ?x376)))
 (= (+ (+ ?x377 ?x378) ?x380) 0.0)))))))
(assert
 (let ((?x402 (* l_0_0_27 l_0_0_27)))
 (let ((?x400 (* l_0_0_26 l_0_0_26)))
 (let ((?x399 (- (* (* 2.0 l_0_0_13) l_0_0_14) (* (* 2.0 l_0_0_19) l_0_0_20))))
 (= (- (- ?x399 ?x400) ?x402) 0.0)))))
(assert
 (let ((?x427 (* l_0_0_21 l_0_0_21)))
 (let ((?x425 (* l_0_0_20 l_0_0_20)))
 (let ((?x423 (* l_0_0_15 l_0_0_15)))
 (let ((?x422 (* l_0_0_14 l_0_0_14)))
 (let ((?x424 (+ ?x422 ?x423)))
 (= (- (- ?x424 ?x425) ?x427) 0.0)))))))
(assert
 (>= l_0_0_1 0.0))
(assert
 (>= l_0_0_3 0.0))
(assert
 (>= l_0_0_6 0.0))
(assert
 (>= l_0_0_7 0.0))
(assert
 (>= l_0_0_9 0.0))
(assert
 (>= l_0_0_12 0.0))
(assert
 (>= l_0_0_13 0.0))
(assert
 (>= l_0_0_15 0.0))
(assert
 (>= l_0_0_18 0.0))
(assert
 (>= l_0_0_19 0.0))
(assert
 (>= l_0_0_21 0.0))
(assert
 (>= l_0_0_24 0.0))
(assert
 (>= l_0_0_25 0.0))
(assert
 (>= l_0_0_27 0.0))
(assert
 (>= l_0_0_30 0.0))
(assert
 (let ((?x460 (+ (- (* (* (- _a_0_) l_0_1_1) l_0_1_1) (* l_0_1_25 l_0_1_25)) (* 5.0 (* l_0_1_7 l_0_1_7)))))
 (= ?x460 0.0)))
(assert
 (let ((?x507 (* l_0_1_30 l_0_1_30)))
 (let ((?x505 (* l_0_1_29 l_0_1_29)))
 (let ((?x503 (* l_0_1_28 l_0_1_28)))
 (let ((?x501 (* l_0_1_13 l_0_1_13)))
 (let ((?x494 (* l_0_1_12 l_0_1_12)))
 (let ((?x495 (* 5.0 ?x494)))
 (let ((?x491 (* l_0_1_11 l_0_1_11)))
 (let ((?x492 (* 5.0 ?x491)))
 (let ((?x488 (* l_0_1_10 l_0_1_10)))
 (let ((?x489 (* 5.0 ?x488)))
 (let ((?x475 (* l_0_1_6 l_0_1_6)))
 (let ((?x476 (+ (+ (* l_0_1_4 l_0_1_4) (* l_0_1_5 l_0_1_5)) ?x475)))
 (let ((?x452 (- _a_0_)))
 (let ((?x484 (- (- (* ?x452 ?x476) (* (* (* 2.0 _a_1_) l_0_1_1) l_0_1_4)) (* (* _a_3_ l_0_1_1) l_0_1_1))))
 (let ((?x496 (+ (+ (+ (- ?x484 (* (* 2.0 l_0_1_10) l_0_1_7)) ?x489) ?x492) ?x495)))
 (let ((?x506 (- (- (- (+ ?x496 (* (* 20.0 l_0_1_13) l_0_1_16)) ?x501) ?x503) ?x505)))
 (= (- (- ?x506 ?x507) (/ 5.0 2.0)) 0.0))))))))))))))))))
(assert
 (let ((?x457 (* l_0_1_7 l_0_1_7)))
 (let ((?x501 (* l_0_1_13 l_0_1_13)))
 (let ((?x565 (* 10.0 ?x501)))
 (let ((?x560 (- (* (* (* (- 2.0) _a_0_) l_0_1_1) l_0_1_4) (* (* _a_1_ l_0_1_1) l_0_1_1))))
 (let ((?x569 (- (+ (+ ?x560 (* (* 10.0 l_0_1_10) l_0_1_7)) ?x565) (* (* 2.0 l_0_1_25) l_0_1_28))))
 (= (- (- ?x569 ?x457) 4.0) 0.0)))))))
(assert
 (let ((?x605 (* l_0_1_19 l_0_1_19)))
 (let ((?x606 (* 10.0 ?x605)))
 (let ((?x604 (- (* (* (* (- 2.0) _a_0_) l_0_1_1) l_0_1_2) (* (* _a_2_ l_0_1_1) l_0_1_1))))
 (let ((?x612 (+ (- (+ ?x604 ?x606) (* (* 2.0 l_0_1_25) l_0_1_26)) (* (* 10.0 l_0_1_7) l_0_1_8))))
 (= (+ ?x612 1.0) 0.0))))))
(assert
 (let ((?x648 (* l_0_1_27 l_0_1_27)))
 (let ((?x646 (* l_0_1_26 l_0_1_26)))
 (let ((?x605 (* l_0_1_19 l_0_1_19)))
 (let ((?x641 (- (* (- _a_0_) (+ (* l_0_1_2 l_0_1_2) (* l_0_1_3 l_0_1_3))) (* (* (* 2.0 _a_2_) l_0_1_1) l_0_1_2))))
 (let ((?x649 (- (- (- (+ ?x641 (* (* 20.0 l_0_1_19) l_0_1_20)) ?x605) ?x646) ?x648)))
 (let ((?x655 (+ (+ ?x649 (* 5.0 (* l_0_1_8 l_0_1_8))) (* 5.0 (* l_0_1_9 l_0_1_9)))))
 (= ?x655 0.0))))))))
(assert
 (let ((?x690 (+ (* (* 2.0 l_0_1_2) l_0_1_4) (* (* 2.0 l_0_1_3) l_0_1_5))))
 (let ((?x452 (- _a_0_)))
 (let ((?x695 (- (- (* ?x452 ?x690) (* (* (* 2.0 _a_1_) l_0_1_1) l_0_1_2)) (* (* (* 2.0 _a_2_) l_0_1_1) l_0_1_4))))
 (let ((?x700 (+ (+ ?x695 (* (* 10.0 l_0_1_10) l_0_1_8)) (* (* 10.0 l_0_1_11) l_0_1_9))))
 (let ((?x704 (+ (+ ?x700 (* (* 20.0 l_0_1_13) l_0_1_14)) (* (* 20.0 l_0_1_19) l_0_1_22))))
 (let ((?x710 (- (- ?x704 (* (* 2.0 l_0_1_26) l_0_1_28)) (* (* 2.0 l_0_1_27) l_0_1_29))))
 (= (- ?x710 (* (* 2.0 l_0_1_7) l_0_1_8)) 0.0))))))))
(assert
 (let ((?x653 (* l_0_1_9 l_0_1_9)))
 (let ((?x650 (* l_0_1_8 l_0_1_8)))
 (let ((?x777 (* l_0_1_15 l_0_1_15)))
 (let ((?x778 (* 10.0 ?x777)))
 (let ((?x774 (* l_0_1_14 l_0_1_14)))
 (let ((?x775 (* 10.0 ?x774)))
 (let ((?x690 (+ (* (* 2.0 l_0_1_2) l_0_1_4) (* (* 2.0 l_0_1_3) l_0_1_5))))
 (let ((?x773 (- (* (- _a_1_) (+ (* l_0_1_2 l_0_1_2) (* l_0_1_3 l_0_1_3))) (* _a_2_ ?x690))))
 (let ((?x785 (+ (- (+ (+ ?x773 ?x775) ?x778) (* (* 2.0 l_0_1_19) l_0_1_22)) (* (* 20.0 l_0_1_20) l_0_1_22))))
 (= (- (- (+ ?x785 (* (* 20.0 l_0_1_21) l_0_1_23)) ?x650) ?x653) 0.0)))))))))))
(assert
 (let ((?x475 (* l_0_1_6 l_0_1_6)))
 (let ((?x476 (+ (+ (* l_0_1_4 l_0_1_4) (* l_0_1_5 l_0_1_5)) ?x475)))
 (let ((?x690 (+ (* (* 2.0 l_0_1_2) l_0_1_4) (* (* 2.0 l_0_1_3) l_0_1_5))))
 (let ((?x770 (- _a_1_)))
 (let ((?x845 (- (- (* ?x770 ?x690) (* _a_2_ ?x476)) (* (* (* 2.0 _a_3_) l_0_1_1) l_0_1_2))))
 (let ((?x850 (- (- ?x845 (* (* 2.0 l_0_1_10) l_0_1_8)) (* (* 2.0 l_0_1_11) l_0_1_9))))
 (let ((?x856 (+ (- ?x850 (* (* 2.0 l_0_1_13) l_0_1_14)) (* (* 20.0 l_0_1_14) l_0_1_16))))
 (let ((?x862 (+ (+ ?x856 (* (* 20.0 l_0_1_15) l_0_1_17)) (* 10.0 (* l_0_1_22 l_0_1_22)))))
 (let ((?x868 (+ (+ ?x862 (* 10.0 (* l_0_1_23 l_0_1_23))) (* 10.0 (* l_0_1_24 l_0_1_24)))))
 (= ?x868 0.0)))))))))))
(assert
 (let ((?x494 (* l_0_1_12 l_0_1_12)))
 (let ((?x491 (* l_0_1_11 l_0_1_11)))
 (let ((?x488 (* l_0_1_10 l_0_1_10)))
 (let ((?x475 (* l_0_1_6 l_0_1_6)))
 (let ((?x476 (+ (+ (* l_0_1_4 l_0_1_4) (* l_0_1_5 l_0_1_5)) ?x475)))
 (let ((?x770 (- _a_1_)))
 (let ((?x924 (- (- (* ?x770 ?x476) (* (* (* 2.0 _a_3_) l_0_1_1) l_0_1_4)) ?x488)))
 (let ((?x931 (+ (- (- (- ?x924 ?x491) ?x494) (* (* 2.0 l_0_1_13) l_0_1_16)) (* 10.0 (* l_0_1_16 l_0_1_16)))))
 (let ((?x937 (+ (+ ?x931 (* 10.0 (* l_0_1_17 l_0_1_17))) (* 10.0 (* l_0_1_18 l_0_1_18)))))
 (= ?x937 0.0)))))))))))
(assert
 (let ((?x975 (- (* (- _a_2_) (+ (* l_0_1_2 l_0_1_2) (* l_0_1_3 l_0_1_3))) (* (* 2.0 l_0_1_19) l_0_1_20))))
 (let ((?x981 (+ (+ ?x975 (* 10.0 (* l_0_1_20 l_0_1_20))) (* 10.0 (* l_0_1_21 l_0_1_21)))))
 (= ?x981 0.0))))
(assert
 (let ((?x866 (* l_0_1_24 l_0_1_24)))
 (let ((?x863 (* l_0_1_23 l_0_1_23)))
 (let ((?x860 (* l_0_1_22 l_0_1_22)))
 (let ((?x777 (* l_0_1_15 l_0_1_15)))
 (let ((?x774 (* l_0_1_14 l_0_1_14)))
 (let ((?x1000 (- (* (- _a_3_) (+ (* l_0_1_2 l_0_1_2) (* l_0_1_3 l_0_1_3))) ?x774)))
 (= (- (- (- (- ?x1000 ?x777) ?x860) ?x863) ?x866) 0.0))))))))
(assert
 (let ((?x690 (+ (* (* 2.0 l_0_1_2) l_0_1_4) (* (* 2.0 l_0_1_3) l_0_1_5))))
 (let ((?x994 (- _a_3_)))
 (let ((?x1035 (- (- (* ?x994 ?x690) (* (* 2.0 l_0_1_14) l_0_1_16)) (* (* 2.0 l_0_1_15) l_0_1_17))))
 (= ?x1035 0.0)))))
(assert
 (let ((?x935 (* l_0_1_18 l_0_1_18)))
 (let ((?x932 (* l_0_1_17 l_0_1_17)))
 (let ((?x929 (* l_0_1_16 l_0_1_16)))
 (let ((?x475 (* l_0_1_6 l_0_1_6)))
 (let ((?x476 (+ (+ (* l_0_1_4 l_0_1_4) (* l_0_1_5 l_0_1_5)) ?x475)))
 (let ((?x994 (- _a_3_)))
 (= (- (- (- (* ?x994 ?x476) ?x929) ?x932) ?x935) 0.0))))))))
(assert
 (= (- (* (- l_0_1_20) l_0_1_20) (* l_0_1_21 l_0_1_21)) 0.0))
(assert
 (let ((?x1091 (- (* (* (- 2.0) l_0_1_20) l_0_1_22) (* (* 2.0 l_0_1_21) l_0_1_23))))
 (= ?x1091 0.0)))
(assert
 (>= l_0_1_1 0.0))
(assert
 (>= l_0_1_3 0.0))
(assert
 (>= l_0_1_6 0.0))
(assert
 (>= l_0_1_7 0.0))
(assert
 (>= l_0_1_9 0.0))
(assert
 (>= l_0_1_12 0.0))
(assert
 (>= l_0_1_13 0.0))
(assert
 (>= l_0_1_15 0.0))
(assert
 (>= l_0_1_18 0.0))
(assert
 (>= l_0_1_19 0.0))
(assert
 (>= l_0_1_21 0.0))
(assert
 (>= l_0_1_24 0.0))
(assert
 (>= l_0_1_25 0.0))
(assert
 (>= l_0_1_27 0.0))
(assert
 (>= l_0_1_30 0.0))
(assert
 (let ((?x1121 (* l_0_2_31 l_0_2_31)))
 (let ((?x1122 (- (- (* (* (- _a_0_) l_0_2_1) l_0_2_1) (* l_0_2_25 l_0_2_25)) ?x1121)))
 (= (+ ?x1122 (* 5.0 (* l_0_2_7 l_0_2_7))) 0.0))))
(assert
 (let ((?x1143 (* l_0_2_19 l_0_2_19)))
 (let ((?x1144 (* 10.0 ?x1143)))
 (let ((?x1142 (- (* (* (* (- 2.0) _a_0_) l_0_2_1) l_0_2_2) (* (* _a_2_ l_0_2_1) l_0_2_1))))
 (let ((?x1151 (- (- (+ ?x1142 ?x1144) (* (* 2.0 l_0_2_25) l_0_2_26)) (* (* 2.0 l_0_2_31) l_0_2_32))))
 (= (- (+ ?x1151 (* (* 10.0 l_0_2_7) l_0_2_8)) 1.0) 0.0))))))
(assert
 (let ((?x1222 (* l_0_2_36 l_0_2_36)))
 (let ((?x1220 (* l_0_2_35 l_0_2_35)))
 (let ((?x1218 (* l_0_2_34 l_0_2_34)))
 (let ((?x1216 (* l_0_2_30 l_0_2_30)))
 (let ((?x1214 (* l_0_2_29 l_0_2_29)))
 (let ((?x1212 (* l_0_2_28 l_0_2_28)))
 (let ((?x1210 (* l_0_2_13 l_0_2_13)))
 (let ((?x1204 (* l_0_2_12 l_0_2_12)))
 (let ((?x1205 (* 5.0 ?x1204)))
 (let ((?x1201 (* l_0_2_11 l_0_2_11)))
 (let ((?x1202 (* 5.0 ?x1201)))
 (let ((?x1198 (* l_0_2_10 l_0_2_10)))
 (let ((?x1199 (* 5.0 ?x1198)))
 (let ((?x1186 (* l_0_2_6 l_0_2_6)))
 (let ((?x1187 (+ (+ (* l_0_2_4 l_0_2_4) (* l_0_2_5 l_0_2_5)) ?x1186)))
 (let ((?x452 (- _a_0_)))
 (let ((?x1194 (- (- (* ?x452 ?x1187) (* (* (* 2.0 _a_1_) l_0_2_1) l_0_2_4)) (* (* _a_3_ l_0_2_1) l_0_2_1))))
 (let ((?x1206 (+ (+ (+ (- ?x1194 (* (* 2.0 l_0_2_10) l_0_2_7)) ?x1199) ?x1202) ?x1205)))
 (let ((?x1215 (- (- (- (+ ?x1206 (* (* 20.0 l_0_2_13) l_0_2_16)) ?x1210) ?x1212) ?x1214)))
 (= (+ (- (- (- (- ?x1215 ?x1216) ?x1218) ?x1220) ?x1222) (/ 7.0 2.0)) 0.0)))))))))))))))))))))
(assert
 (let ((?x1123 (* l_0_2_7 l_0_2_7)))
 (let ((?x1210 (* l_0_2_13 l_0_2_13)))
 (let ((?x1283 (* 10.0 ?x1210)))
 (let ((?x1279 (- (* (* (* (- 2.0) _a_0_) l_0_2_1) l_0_2_4) (* (* _a_1_ l_0_2_1) l_0_2_1))))
 (let ((?x1286 (- (+ (+ ?x1279 (* (* 10.0 l_0_2_10) l_0_2_7)) ?x1283) (* (* 2.0 l_0_2_25) l_0_2_28))))
 (= (+ (- (- ?x1286 (* (* 2.0 l_0_2_31) l_0_2_34)) ?x1123) 3.0) 0.0)))))))
(assert
 (let ((?x1339 (* l_0_2_33 l_0_2_33)))
 (let ((?x1337 (* l_0_2_32 l_0_2_32)))
 (let ((?x1335 (* l_0_2_27 l_0_2_27)))
 (let ((?x1333 (* l_0_2_26 l_0_2_26)))
 (let ((?x1143 (* l_0_2_19 l_0_2_19)))
 (let ((?x1328 (- (* (- _a_0_) (+ (* l_0_2_2 l_0_2_2) (* l_0_2_3 l_0_2_3))) (* (* (* 2.0 _a_2_) l_0_2_1) l_0_2_2))))
 (let ((?x1336 (- (- (- (+ ?x1328 (* (* 20.0 l_0_2_19) l_0_2_20)) ?x1143) ?x1333) ?x1335)))
 (let ((?x1346 (+ (+ (- (- ?x1336 ?x1337) ?x1339) (* 5.0 (* l_0_2_8 l_0_2_8))) (* 5.0 (* l_0_2_9 l_0_2_9)))))
 (= ?x1346 0.0))))))))))
(assert
 (let ((?x1386 (+ (* (* 2.0 l_0_2_2) l_0_2_4) (* (* 2.0 l_0_2_3) l_0_2_5))))
 (let ((?x452 (- _a_0_)))
 (let ((?x1391 (- (- (* ?x452 ?x1386) (* (* (* 2.0 _a_1_) l_0_2_1) l_0_2_2)) (* (* (* 2.0 _a_2_) l_0_2_1) l_0_2_4))))
 (let ((?x1396 (+ (+ ?x1391 (* (* 10.0 l_0_2_10) l_0_2_8)) (* (* 10.0 l_0_2_11) l_0_2_9))))
 (let ((?x1400 (+ (+ ?x1396 (* (* 20.0 l_0_2_13) l_0_2_14)) (* (* 20.0 l_0_2_19) l_0_2_22))))
 (let ((?x1406 (- (- ?x1400 (* (* 2.0 l_0_2_26) l_0_2_28)) (* (* 2.0 l_0_2_27) l_0_2_29))))
 (let ((?x1412 (- (- ?x1406 (* (* 2.0 l_0_2_32) l_0_2_34)) (* (* 2.0 l_0_2_33) l_0_2_35))))
 (= (- ?x1412 (* (* 2.0 l_0_2_7) l_0_2_8)) 0.0)))))))))
(assert
 (let ((?x1344 (* l_0_2_9 l_0_2_9)))
 (let ((?x1341 (* l_0_2_8 l_0_2_8)))
 (let ((?x1490 (* l_0_2_15 l_0_2_15)))
 (let ((?x1491 (* 10.0 ?x1490)))
 (let ((?x1487 (* l_0_2_14 l_0_2_14)))
 (let ((?x1488 (* 10.0 ?x1487)))
 (let ((?x1386 (+ (* (* 2.0 l_0_2_2) l_0_2_4) (* (* 2.0 l_0_2_3) l_0_2_5))))
 (let ((?x1486 (- (* (- _a_1_) (+ (* l_0_2_2 l_0_2_2) (* l_0_2_3 l_0_2_3))) (* _a_2_ ?x1386))))
 (let ((?x1498 (+ (- (+ (+ ?x1486 ?x1488) ?x1491) (* (* 2.0 l_0_2_19) l_0_2_22)) (* (* 20.0 l_0_2_20) l_0_2_22))))
 (= (- (- (+ ?x1498 (* (* 20.0 l_0_2_21) l_0_2_23)) ?x1341) ?x1344) 0.0)))))))))))
(assert
 (let ((?x1186 (* l_0_2_6 l_0_2_6)))
 (let ((?x1187 (+ (+ (* l_0_2_4 l_0_2_4) (* l_0_2_5 l_0_2_5)) ?x1186)))
 (let ((?x1386 (+ (* (* 2.0 l_0_2_2) l_0_2_4) (* (* 2.0 l_0_2_3) l_0_2_5))))
 (let ((?x770 (- _a_1_)))
 (let ((?x1556 (- (- (* ?x770 ?x1386) (* _a_2_ ?x1187)) (* (* (* 2.0 _a_3_) l_0_2_1) l_0_2_2))))
 (let ((?x1561 (- (- ?x1556 (* (* 2.0 l_0_2_10) l_0_2_8)) (* (* 2.0 l_0_2_11) l_0_2_9))))
 (let ((?x1567 (+ (- ?x1561 (* (* 2.0 l_0_2_13) l_0_2_14)) (* (* 20.0 l_0_2_14) l_0_2_16))))
 (let ((?x1573 (+ (+ ?x1567 (* (* 20.0 l_0_2_15) l_0_2_17)) (* 10.0 (* l_0_2_22 l_0_2_22)))))
 (let ((?x1579 (+ (+ ?x1573 (* 10.0 (* l_0_2_23 l_0_2_23))) (* 10.0 (* l_0_2_24 l_0_2_24)))))
 (= ?x1579 0.0)))))))))))
(assert
 (let ((?x1204 (* l_0_2_12 l_0_2_12)))
 (let ((?x1201 (* l_0_2_11 l_0_2_11)))
 (let ((?x1198 (* l_0_2_10 l_0_2_10)))
 (let ((?x1186 (* l_0_2_6 l_0_2_6)))
 (let ((?x1187 (+ (+ (* l_0_2_4 l_0_2_4) (* l_0_2_5 l_0_2_5)) ?x1186)))
 (let ((?x770 (- _a_1_)))
 (let ((?x1635 (- (- (* ?x770 ?x1187) (* (* (* 2.0 _a_3_) l_0_2_1) l_0_2_4)) ?x1198)))
 (let ((?x1642 (+ (- (- (- ?x1635 ?x1201) ?x1204) (* (* 2.0 l_0_2_13) l_0_2_16)) (* 10.0 (* l_0_2_16 l_0_2_16)))))
 (let ((?x1648 (+ (+ ?x1642 (* 10.0 (* l_0_2_17 l_0_2_17))) (* 10.0 (* l_0_2_18 l_0_2_18)))))
 (= ?x1648 0.0)))))))))))
(assert
 (let ((?x1685 (- (* (- _a_2_) (+ (* l_0_2_2 l_0_2_2) (* l_0_2_3 l_0_2_3))) (* (* 2.0 l_0_2_19) l_0_2_20))))
 (let ((?x1691 (+ (+ ?x1685 (* 10.0 (* l_0_2_20 l_0_2_20))) (* 10.0 (* l_0_2_21 l_0_2_21)))))
 (= ?x1691 0.0))))
(assert
 (let ((?x1577 (* l_0_2_24 l_0_2_24)))
 (let ((?x1574 (* l_0_2_23 l_0_2_23)))
 (let ((?x1571 (* l_0_2_22 l_0_2_22)))
 (let ((?x1490 (* l_0_2_15 l_0_2_15)))
 (let ((?x1487 (* l_0_2_14 l_0_2_14)))
 (let ((?x1708 (- (* (- _a_3_) (+ (* l_0_2_2 l_0_2_2) (* l_0_2_3 l_0_2_3))) ?x1487)))
 (= (- (- (- (- ?x1708 ?x1490) ?x1571) ?x1574) ?x1577) 0.0))))))))
(assert
 (let ((?x1386 (+ (* (* 2.0 l_0_2_2) l_0_2_4) (* (* 2.0 l_0_2_3) l_0_2_5))))
 (let ((?x994 (- _a_3_)))
 (let ((?x1742 (- (- (* ?x994 ?x1386) (* (* 2.0 l_0_2_14) l_0_2_16)) (* (* 2.0 l_0_2_15) l_0_2_17))))
 (= ?x1742 0.0)))))
(assert
 (let ((?x1646 (* l_0_2_18 l_0_2_18)))
 (let ((?x1643 (* l_0_2_17 l_0_2_17)))
 (let ((?x1640 (* l_0_2_16 l_0_2_16)))
 (let ((?x1186 (* l_0_2_6 l_0_2_6)))
 (let ((?x1187 (+ (+ (* l_0_2_4 l_0_2_4) (* l_0_2_5 l_0_2_5)) ?x1186)))
 (let ((?x994 (- _a_3_)))
 (= (- (- (- (* ?x994 ?x1187) ?x1640) ?x1643) ?x1646) 0.0))))))))
(assert
 (= (- (* (- l_0_2_20) l_0_2_20) (* l_0_2_21 l_0_2_21)) 0.0))
(assert
 (let ((?x1798 (- (* (* (- 2.0) l_0_2_20) l_0_2_22) (* (* 2.0 l_0_2_21) l_0_2_23))))
 (= ?x1798 0.0)))
(assert
 (>= l_0_2_1 0.0))
(assert
 (>= l_0_2_3 0.0))
(assert
 (>= l_0_2_6 0.0))
(assert
 (>= l_0_2_7 0.0))
(assert
 (>= l_0_2_9 0.0))
(assert
 (>= l_0_2_12 0.0))
(assert
 (>= l_0_2_13 0.0))
(assert
 (>= l_0_2_15 0.0))
(assert
 (>= l_0_2_18 0.0))
(assert
 (>= l_0_2_19 0.0))
(assert
 (>= l_0_2_21 0.0))
(assert
 (>= l_0_2_24 0.0))
(assert
 (>= l_0_2_25 0.0))
(assert
 (>= l_0_2_27 0.0))
(assert
 (>= l_0_2_30 0.0))
(assert
 (>= l_0_2_31 0.0))
(assert
 (>= l_0_2_33 0.0))
(assert
 (>= l_0_2_36 0.0))
(assert
 (let ((?x1837 (* l_0_3_25 l_0_3_25)))
 (let ((?x1833 (* (/ 11.0 2.0) _a_2_)))
 (let ((?x1831 (+ (+ (* (* (- _a_0_) l_0_3_1) l_0_3_1) _a_0_) (* 1.0 _a_1_))))
 (let ((?x1841 (- (- (+ (+ ?x1831 ?x1833) (* 1.0 _a_3_)) ?x1837) (* (* 5.0 l_0_3_7) l_0_3_7))))
 (= ?x1841 0.0))))))
(assert
 (let ((?x1849 (* l_0_3_7 l_0_3_7)))
 (let ((?x842 (* 2.0 _a_3_)))
 (let ((?x1833 (* (/ 11.0 2.0) _a_2_)))
 (let ((?x1860 (- (* (* (* (- 2.0) _a_0_) l_0_3_1) l_0_3_4) (* (* _a_1_ l_0_3_1) l_0_3_1))))
 (let ((?x1866 (- (+ (+ (+ ?x1860 _a_1_) ?x1833) ?x842) (* (* 10.0 l_0_3_10) l_0_3_7))))
 (let ((?x1872 (- (- ?x1866 (* (* 10.0 l_0_3_13) l_0_3_13)) (* (* 2.0 l_0_3_25) l_0_3_28))))
 (= (+ ?x1872 ?x1849) 0.0))))))))
(assert
 (let ((?x1905 (- (* (* (* (- 2.0) _a_0_) l_0_3_1) l_0_3_2) (* (* _a_2_ l_0_3_1) l_0_3_1))))
 (let ((?x1911 (- (- (+ ?x1905 _a_2_) (* (* 10.0 l_0_3_19) l_0_3_19)) (* (* 2.0 l_0_3_25) l_0_3_26))))
 (= (- ?x1911 (* (* 10.0 l_0_3_7) l_0_3_8)) 0.0))))
(assert
 (let ((?x1976 (* l_0_3_30 l_0_3_30)))
 (let ((?x1974 (* l_0_3_29 l_0_3_29)))
 (let ((?x1972 (* l_0_3_28 l_0_3_28)))
 (let ((?x1888 (* l_0_3_13 l_0_3_13)))
 (let ((?x1946 (* l_0_3_6 l_0_3_6)))
 (let ((?x1947 (+ (+ (* l_0_3_4 l_0_3_4) (* l_0_3_5 l_0_3_5)) ?x1946)))
 (let ((?x452 (- _a_0_)))
 (let ((?x1954 (- (- (* ?x452 ?x1947) (* (* (* 2.0 _a_1_) l_0_3_1) l_0_3_4)) (* (* _a_3_ l_0_3_1) l_0_3_1))))
 (let ((?x1961 (- (+ (+ ?x1954 _a_3_) (* (* 2.0 l_0_3_10) l_0_3_7)) (* (* 5.0 l_0_3_10) l_0_3_10))))
 (let ((?x1967 (- (- ?x1961 (* (* 5.0 l_0_3_11) l_0_3_11)) (* (* 5.0 l_0_3_12) l_0_3_12))))
 (let ((?x1975 (- (- (+ (- ?x1967 (* (* 20.0 l_0_3_13) l_0_3_16)) ?x1888) ?x1972) ?x1974)))
 (= (- ?x1975 ?x1976) 0.0)))))))))))))
(assert
 (let ((?x2046 (* l_0_3_27 l_0_3_27)))
 (let ((?x2044 (* l_0_3_26 l_0_3_26)))
 (let ((?x1924 (* l_0_3_19 l_0_3_19)))
 (let ((?x2039 (- (* (- _a_0_) (+ (* l_0_3_2 l_0_3_2) (* l_0_3_3 l_0_3_3))) (* (* (* 2.0 _a_2_) l_0_3_1) l_0_3_2))))
 (let ((?x2047 (- (- (+ (- ?x2039 (* (* 20.0 l_0_3_19) l_0_3_20)) ?x1924) ?x2044) ?x2046)))
 (let ((?x2053 (- (- ?x2047 (* (* 5.0 l_0_3_8) l_0_3_8)) (* (* 5.0 l_0_3_9) l_0_3_9))))
 (= ?x2053 0.0))))))))
(assert
 (let ((?x2096 (+ (* (* 2.0 l_0_3_2) l_0_3_4) (* (* 2.0 l_0_3_3) l_0_3_5))))
 (let ((?x452 (- _a_0_)))
 (let ((?x2101 (- (- (* ?x452 ?x2096) (* (* (* 2.0 _a_1_) l_0_3_1) l_0_3_2)) (* (* (* 2.0 _a_2_) l_0_3_1) l_0_3_4))))
 (let ((?x2106 (- (- ?x2101 (* (* 10.0 l_0_3_10) l_0_3_8)) (* (* 10.0 l_0_3_11) l_0_3_9))))
 (let ((?x2110 (- (- ?x2106 (* (* 20.0 l_0_3_13) l_0_3_14)) (* (* 20.0 l_0_3_19) l_0_3_22))))
 (let ((?x2116 (- (- ?x2110 (* (* 2.0 l_0_3_26) l_0_3_28)) (* (* 2.0 l_0_3_27) l_0_3_29))))
 (= (+ ?x2116 (* (* 2.0 l_0_3_7) l_0_3_8)) 0.0))))))))
(assert
 (let ((?x2085 (* l_0_3_9 l_0_3_9)))
 (let ((?x2079 (* l_0_3_8 l_0_3_8)))
 (let ((?x2096 (+ (* (* 2.0 l_0_3_2) l_0_3_4) (* (* 2.0 l_0_3_3) l_0_3_5))))
 (let ((?x2185 (- (* (- _a_1_) (+ (* l_0_3_2 l_0_3_2) (* l_0_3_3 l_0_3_3))) (* _a_2_ ?x2096))))
 (let ((?x2191 (- (- ?x2185 (* (* 10.0 l_0_3_14) l_0_3_14)) (* (* 10.0 l_0_3_15) l_0_3_15))))
 (let ((?x2197 (- (+ ?x2191 (* (* 2.0 l_0_3_19) l_0_3_22)) (* (* 20.0 l_0_3_20) l_0_3_22))))
 (= (+ (+ (- ?x2197 (* (* 20.0 l_0_3_21) l_0_3_23)) ?x2079) ?x2085) 0.0))))))))
(assert
 (let ((?x1946 (* l_0_3_6 l_0_3_6)))
 (let ((?x1947 (+ (+ (* l_0_3_4 l_0_3_4) (* l_0_3_5 l_0_3_5)) ?x1946)))
 (let ((?x2096 (+ (* (* 2.0 l_0_3_2) l_0_3_4) (* (* 2.0 l_0_3_3) l_0_3_5))))
 (let ((?x770 (- _a_1_)))
 (let ((?x2260 (- (- (* ?x770 ?x2096) (* _a_2_ ?x1947)) (* (* (* 2.0 _a_3_) l_0_3_1) l_0_3_2))))
 (let ((?x2265 (+ (+ ?x2260 (* (* 2.0 l_0_3_10) l_0_3_8)) (* (* 2.0 l_0_3_11) l_0_3_9))))
 (let ((?x2271 (- (+ ?x2265 (* (* 2.0 l_0_3_13) l_0_3_14)) (* (* 20.0 l_0_3_14) l_0_3_16))))
 (let ((?x2277 (- (- ?x2271 (* (* 20.0 l_0_3_15) l_0_3_17)) (* (* 10.0 l_0_3_22) l_0_3_22))))
 (let ((?x2283 (- (- ?x2277 (* (* 10.0 l_0_3_23) l_0_3_23)) (* (* 10.0 l_0_3_24) l_0_3_24))))
 (= ?x2283 0.0)))))))))))
(assert
 (let ((?x2010 (* l_0_3_12 l_0_3_12)))
 (let ((?x2004 (* l_0_3_11 l_0_3_11)))
 (let ((?x1998 (* l_0_3_10 l_0_3_10)))
 (let ((?x1946 (* l_0_3_6 l_0_3_6)))
 (let ((?x1947 (+ (+ (* l_0_3_4 l_0_3_4) (* l_0_3_5 l_0_3_5)) ?x1946)))
 (let ((?x770 (- _a_1_)))
 (let ((?x2350 (+ (- (* ?x770 ?x1947) (* (* (* 2.0 _a_3_) l_0_3_1) l_0_3_4)) ?x1998)))
 (let ((?x2357 (- (+ (+ (+ ?x2350 ?x2004) ?x2010) (* (* 2.0 l_0_3_13) l_0_3_16)) (* (* 10.0 l_0_3_16) l_0_3_16))))
 (let ((?x2363 (- (- ?x2357 (* (* 10.0 l_0_3_17) l_0_3_17)) (* (* 10.0 l_0_3_18) l_0_3_18))))
 (= ?x2363 0.0)))))))))))
(assert
 (let ((?x2402 (+ (* (- _a_2_) (+ (* l_0_3_2 l_0_3_2) (* l_0_3_3 l_0_3_3))) (* (* 2.0 l_0_3_19) l_0_3_20))))
 (let ((?x2408 (- (- ?x2402 (* (* 10.0 l_0_3_20) l_0_3_20)) (* (* 10.0 l_0_3_21) l_0_3_21))))
 (= ?x2408 0.0))))
(assert
 (let ((?x2340 (* l_0_3_24 l_0_3_24)))
 (let ((?x2334 (* l_0_3_23 l_0_3_23)))
 (let ((?x2328 (* l_0_3_22 l_0_3_22)))
 (let ((?x2233 (* l_0_3_15 l_0_3_15)))
 (let ((?x2227 (* l_0_3_14 l_0_3_14)))
 (let ((?x2431 (+ (* (- _a_3_) (+ (* l_0_3_2 l_0_3_2) (* l_0_3_3 l_0_3_3))) ?x2227)))
 (= (+ (+ (+ (+ ?x2431 ?x2233) ?x2328) ?x2334) ?x2340) 0.0))))))))
(assert
 (let ((?x2096 (+ (* (* 2.0 l_0_3_2) l_0_3_4) (* (* 2.0 l_0_3_3) l_0_3_5))))
 (let ((?x994 (- _a_3_)))
 (let ((?x2450 (+ (+ (* ?x994 ?x2096) (* (* 2.0 l_0_3_14) l_0_3_16)) (* (* 2.0 l_0_3_15) l_0_3_17))))
 (= ?x2450 0.0)))))
(assert
 (let ((?x2393 (* l_0_3_18 l_0_3_18)))
 (let ((?x2387 (* l_0_3_17 l_0_3_17)))
 (let ((?x2381 (* l_0_3_16 l_0_3_16)))
 (let ((?x1946 (* l_0_3_6 l_0_3_6)))
 (let ((?x1947 (+ (+ (* l_0_3_4 l_0_3_4) (* l_0_3_5 l_0_3_5)) ?x1946)))
 (let ((?x994 (- _a_3_)))
 (= (+ (+ (+ (* ?x994 ?x1947) ?x2381) ?x2387) ?x2393) 0.0))))))))
(assert
 (= (+ (* l_0_3_20 l_0_3_20) (* l_0_3_21 l_0_3_21)) 0.0))
(assert
 (let ((?x2481 (+ (* (* 2.0 l_0_3_20) l_0_3_22) (* (* 2.0 l_0_3_21) l_0_3_23))))
 (= ?x2481 0.0)))
(assert
 (>= l_0_3_1 0.0))
(assert
 (>= l_0_3_3 0.0))
(assert
 (>= l_0_3_6 0.0))
(assert
 (>= l_0_3_7 0.0))
(assert
 (>= l_0_3_9 0.0))
(assert
 (>= l_0_3_12 0.0))
(assert
 (>= l_0_3_13 0.0))
(assert
 (>= l_0_3_15 0.0))
(assert
 (>= l_0_3_18 0.0))
(assert
 (>= l_0_3_19 0.0))
(assert
 (>= l_0_3_21 0.0))
(assert
 (>= l_0_3_24 0.0))
(assert
 (>= l_0_3_25 0.0))
(assert
 (>= l_0_3_27 0.0))
(assert
 (>= l_0_3_30 0.0))
(check-sat)
(get-model)